nNurses = 53;
nHours = 38;
minHours = 5;
maxHours = 16;
maxConsec = 11;
maxPresence = 22;
demand = [20, 15, 11, 14, 12, 11, 9, 10, 10, 15, 13, 13, 18, 22, 17, 18, 13, 15, 20, 17, 13, 12, 11, 16, 13, 9, 14, 16, 21, 18, 16, 14, 14, 11, 10, 15, 10, 14];
